&CONTROL
   calculation = 'scf'
   prefix = 'HfSe2'
   outdir = './work'
   pseudo_dir = '/home/daniel/research/HfSe2/pseudo'
/

&SYSTEM
   ibrav = 0
   nat = 27
   ntyp = 2
   ecutwfc = 60
   ecutrho = 240
   nbnd = 300
/

&ELECTRONS
   conv_thr = 1d-6
   mixing_beta = 0.3
   electron_maxstep = 500
   diagonalization = 'cg'
/

ATOMIC_SPECIES
Hf 178.49 Hf.pbe-spn-kjpaw_psl.1.0.0.UPF
Se 78.96 Se.pbe-dn-kjpaw_psl.1.0.0.UPF

CELL_PARAMETERS (angstrom)
5.634334368  9.758953377  0.00000000
5.634334368   -9.758953377 0.00000000
0.00000000 0.00000000 25.00000000

ATOMIC_POSITIONS (angstrom)
   Hf    0.0000000000    0.0000000000    0.0000000000
   Se    1.8781114560   -1.0843281750    1.5680924000
   Se    1.8781114560    1.0843281750   -1.5680924000
   Hf    1.8781114560   -3.2529844590    0.0000000000
   Se    3.7562229120   -4.3373126340    1.5680924000
   Se    3.7562229120   -2.1686562840   -1.5680924000
   Hf    3.7562229120   -6.5059689180    0.0000000000
   Se    5.6343343680   -7.5902970930    1.5680924000
   Se    5.6343343680   -5.4216407430   -1.5680924000
   Hf    1.8781114560    3.2529844590    0.0000000000
   Se    3.7562229120    2.1686562840    1.5680924000
   Se    3.7562229120    4.3373126340   -1.5680924000
   Hf    3.7562229120    0.0000000000    0.0000000000
   Se    5.6343343680   -1.0843281750    1.5680924000
   Se    5.6343343680    1.0843281750   -1.5680924000
   Hf    5.6343343680   -3.2529844590    0.0000000000
   Se    7.5124458240   -4.3373126340    1.5680924000
   Se    7.5124458240   -2.1686562840   -1.5680924000
   Hf    3.7562229120    6.5059689180    0.0000000000
   Se    5.6343343680    5.4216407430    1.5680924000
   Se    5.6343343680    7.5902970930   -1.5680924000
   Hf    5.6343343680    3.2529844590    0.0000000000
   Se    7.5124458240    2.1686562840    1.5680924000
   Se    7.5124458240    4.3373126340   -1.5680924000
   Hf    7.5124458240    0.0000000000    0.0000000000
   Se    9.3905572800   -1.0843281750    1.5680924000
   Se    9.3905572800    1.0843281750   -1.5680924000

K_POINTS {automatic}
6 6 1 0 0 0  
